Optimal - objective value -74666.66666667
      0 C0000000  1.4210855e-014              -213.33333
      1 C0000001              50                     640
      2 C0000002             350                    -320
      3 C0000003               0              -213.33333
      4 C0000004              25                     640
      5 C0000005               0              -426.66667
      6 C0000006               0              -213.33333
      7 C0000007              25                     640
      8 C0000008               0              -426.66667
      9 C0000009               0                    -160
     10 C0000010              50                     640
     11 C0000011              50                    -320
      0 X0000000              50                    -320
      1 X0000001              25              -213.33333
      2 X0000002              25              -213.33333
      3 X0000003              50                    -320
      4 X0000004               0               106.66667
      5 X0000005              25                       0
      6 X0000006              25                       0
      7 X0000007               0                       0
      8 X0000008             100                       0
      9 X0000009              50                       0
     10 X0000010               0               53.333333
     11 X0000011               0                     160
     12 X0000012      -66.666667                       0
     13 X0000013               0              -106.66667
     14 X0000014               0              -106.66667
     15 X0000015               0                     -80
     16 X0000016               0                       0
     17 X0000017               0                       0
     18 X0000018               0                       0
     19 X0000019               0                       0
     20 X0000020       233.33333                       0
     21 X0000021               0               106.66667
     22 X0000022               0               106.66667
     23 X0000023               0                       0
